p cnf 517
-8 -162
-9 -165
-10 -168
-11 -171
-12 -174
-13 -177
-14 -180
-15 181
-16 182
-17 183
-18 184
-19 185
-20 -9
-20 -10
9 10 20
-21 -11
-21 -12
11 12 21
-22 -13
-22 -14
13 14 22
-23 -15
-23 -16
15 16 23
-24 -17
-24 -18
17 18 24
-25 20
-25 21
-20 -21 25
-26 22
-26 23
-22 -23 26
-27 -19
-27 24
19 -24 27
-28 25
-28 26
-25 -26 28
-29 27
-29 28
-27 -28 29
-30 -8
-30 9
8 -9 30
-31 8
-31 -9
-8 9 31
-32 -30
-32 -31
30 31 32
-33 8
-33 9
-8 -9 33
-34 -8
-34 -32
8 32 34
-35 8
-35 32
-8 -32 35
-36 -34
-36 -35
34 35 36
-37 8
-37 -32
-8 32 37
-38 -33
-38 -37
33 37 38
-39 -9
-39 10
9 -10 39
-40 9
-40 -10
-9 10 40
-41 -39
-41 -40
39 40 41
-42 9
-42 10
-9 -10 42
-43 38
-43 -41
-38 41 43
-44 -38
-44 41
38 -41 44
-45 -43
-45 -44
43 44 45
-46 -38
-46 -41
38 41 46
-47 -42
-47 -46
42 46 47
-48 -10
-48 11
10 -11 48
-49 10
-49 -11
-10 11 49
-50 -48
-50 -49
48 49 50
-51 10
-51 11
-10 -11 51
-52 47
-52 -50
-47 50 52
-53 -47
-53 50
47 -50 53
-54 -52
-54 -53
52 53 54
-55 -47
-55 -50
47 50 55
-56 -51
-56 -55
51 55 56
-57 -11
-57 12
11 -12 57
-58 11
-58 -12
-11 12 58
-59 -57
-59 -58
57 58 59
-60 11
-60 12
-11 -12 60
-61 56
-61 -59
-56 59 61
-62 -56
-62 59
56 -59 62
-63 -61
-63 -62
61 62 63
-64 -56
-64 -59
56 59 64
-65 -60
-65 -64
60 64 65
-66 -12
-66 13
12 -13 66
-67 12
-67 -13
-12 13 67
-68 -66
-68 -67
66 67 68
-69 12
-69 13
-12 -13 69
-70 65
-70 -68
-65 68 70
-71 -65
-71 68
65 -68 71
-72 -70
-72 -71
70 71 72
-73 -65
-73 -68
65 68 73
-74 -69
-74 -73
69 73 74
-75 -13
-75 14
13 -14 75
-76 13
-76 -14
-13 14 76
-77 -75
-77 -76
75 76 77
-78 13
-78 14
-13 -14 78
-79 74
-79 -77
-74 77 79
-80 -74
-80 77
74 -77 80
-81 -79
-81 -80
79 80 81
-82 -74
-82 -77
74 77 82
-83 -78
-83 -82
78 82 83
-84 -14
-84 15
14 -15 84
-85 14
-85 -15
-14 15 85
-86 -84
-86 -85
84 85 86
-87 14
-87 15
-14 -15 87
-88 83
-88 -86
-83 86 88
-89 -83
-89 86
83 -86 89
-90 -88
-90 -89
88 89 90
-91 -83
-91 -86
83 86 91
-92 -87
-92 -91
87 91 92
-93 -15
-93 16
15 -16 93
-94 15
-94 -16
-15 16 94
-95 -93
-95 -94
93 94 95
-96 15
-96 16
-15 -16 96
-97 92
-97 -95
-92 95 97
-98 -92
-98 95
92 -95 98
-99 -97
-99 -98
97 98 99
-100 -92
-100 -95
92 95 100
-101 -96
-101 -100
96 100 101
-102 -16
-102 17
16 -17 102
-103 16
-103 -17
-16 17 103
-104 -102
-104 -103
102 103 104
-105 16
-105 17
-16 -17 105
-106 101
-106 -104
-101 104 106
-107 -101
-107 104
101 -104 107
-108 -106
-108 -107
106 107 108
-109 -101
-109 -104
101 104 109
-110 -105
-110 -109
105 109 110
-111 -17
-111 18
17 -18 111
-112 17
-112 -18
-17 18 112
-113 -111
-113 -112
111 112 113
-114 17
-114 18
-17 -18 114
-115 110
-115 -113
-110 113 115
-116 -110
-116 113
110 -113 116
-117 -115
-117 -116
115 116 117
-118 -110
-118 -113
110 113 118
-119 -114
-119 -118
114 118 119
-120 -18
-120 19
18 -19 120
-121 18
-121 -19
-18 19 121
-122 -120
-122 -121
120 121 122
-123 18
-123 19
-18 -19 123
-124 119
-124 -122
-119 122 124
-125 -119
-125 122
119 -122 125
-126 -124
-126 -125
124 125 126
-127 -119
-127 -122
119 122 127
-128 -123
-128 -127
123 127 128
-129 8
-129 -36
-8 36 129
-130 -8
-130 10
8 -10 130
-131 -129
-131 -130
129 130 131
-132 8
-132 -45
-8 45 132
-133 -8
-133 11
8 -11 133
-134 -132
-134 -133
132 133 134
-135 8
-135 -54
-8 54 135
-136 -8
-136 12
8 -12 136
-137 -135
-137 -136
135 136 137
-138 8
-138 -63
-8 63 138
-139 -8
-139 13
8 -13 139
-140 -138
-140 -139
138 139 140
-141 8
-141 -72
-8 72 141
-142 -8
-142 14
8 -14 142
-143 -141
-143 -142
141 142 143
-144 8
-144 -81
-8 81 144
-145 -8
-145 15
8 -15 145
-146 -144
-146 -145
144 145 146
-147 8
-147 -90
-8 90 147
-148 -8
-148 16
8 -16 148
-149 -147
-149 -148
147 148 149
-150 8
-150 -99
-8 99 150
-151 -8
-151 17
8 -17 151
-152 -150
-152 -151
150 151 152
-153 8
-153 -108
-8 108 153
-154 -8
-154 18
8 -18 154
-155 -153
-155 -154
153 154 155
-156 8
-156 -117
-8 117 156
-157 -8
-157 19
8 -19 157
-158 -156
-158 -157
156 157 158
-159 8
-159 -126
-8 126 159
-160 1
-160 29
-1 -29 160
-161 -29
-161 30
29 -30 161
-162 -160
-162 -161
160 161 162
-163 2
-163 29
-2 -29 163
-164 -29
-164 -131
29 131 164
-165 -163
-165 -164
163 164 165
-166 3
-166 29
-3 -29 166
-167 -29
-167 -134
29 134 167
-168 -166
-168 -167
166 167 168
-169 4
-169 29
-4 -29 169
-170 -29
-170 -137
29 137 170
-171 -169
-171 -170
169 170 171
-172 5
-172 29
-5 -29 172
-173 -29
-173 -140
29 140 173
-174 -172
-174 -173
172 173 174
-175 6
-175 29
-6 -29 175
-176 -29
-176 -143
29 143 176
-177 -175
-177 -176
175 176 177
-178 7
-178 29
-7 -29 178
-179 -29
-179 -146
29 146 179
-180 -178
-180 -179
178 179 180
-181 -29
-181 -149
29 149 181
-182 -29
-182 -152
29 152 182
-183 -29
-183 -155
29 155 183
-184 -29
-184 -158
29 158 184
-185 -29
-185 159
29 -159 185
-186 -19
-186 128
19 -128 186
-187 8
-187 -186
-8 186 187
187
